(set-option :produce-models true)
(set-logic QF_UF)
(declare-fun p36() Bool)
(declare-fun p48() Bool)
(declare-fun p1() Bool)
(declare-fun p2() Bool)
(declare-fun p41() Bool)
(declare-fun p44() Bool)
(declare-fun p23() Bool)
(declare-fun p33() Bool)
(declare-fun p59() Bool)
(declare-fun p31() Bool)
(declare-fun p24() Bool)
(declare-fun p6() Bool)
(declare-fun p53() Bool)
(declare-fun p5() Bool)
(declare-fun p35() Bool)
(declare-fun p21() Bool)
(declare-fun p51() Bool)
(declare-fun p13() Bool)
(declare-fun p12() Bool)
(declare-fun p40() Bool)
(declare-fun p50() Bool)
(declare-fun p29() Bool)
(declare-fun p8() Bool)
(declare-fun p30() Bool)
(declare-fun p16() Bool)
(declare-fun p49() Bool)
(declare-fun p17() Bool)
(declare-fun p28() Bool)
(declare-fun p39() Bool)
(declare-fun p4() Bool)
(declare-fun p58() Bool)
(declare-fun p15() Bool)
(declare-fun p18() Bool)
(declare-fun p46() Bool)
(declare-fun p20() Bool)
(declare-fun p22() Bool)
(declare-fun p32() Bool)
(declare-fun p0() Bool)
(declare-fun p19() Bool)
(declare-fun p10() Bool)
(declare-fun p55() Bool)
(declare-fun p9() Bool)
(declare-fun p38() Bool)
(declare-fun p14() Bool)
(declare-fun p54() Bool)
(declare-fun p47() Bool)
(declare-fun p45() Bool)
(declare-fun p34() Bool)
(declare-fun p52() Bool)
(declare-fun p26() Bool)
(declare-fun p56() Bool)
(declare-fun p25() Bool)
(declare-fun p57() Bool)
(declare-fun p43() Bool)
(declare-fun p27() Bool)
(declare-fun p37() Bool)
(declare-fun p3() Bool)
(declare-fun p11() Bool)
(declare-fun p42() Bool)
(declare-fun p7() Bool)
(assert
(and (or (not p36) p48 p1) (or (not p2) p41 p44) (or p23 (not p33) p59) (or p31 (not p1) (not p24)) (or p6 p53 (not p5)) (or p35 p5 (not p21)) (or p1 p51 (not p13)) (or (not p33) p12 p40) (or p5 (not p50) (not p40)) (or p29 p59 p8) (or (not p30) p24 (not p30)) (or (not p16) p31 (not p2)) (or (not p40) (not p40) p23) (or (not p49) p13 (not p17)) (or (not p1) (not p50) p41) (or p17 p35 p28) (or p40 p41 p23) (or p28 (not p39) p4) (or p23 (not p40) (not p58)) (or (not p15) (not p18) p46) (or p20 p22 p29) (or p5 p31 p36) (or (not p51) (not p32) p0) (or p39 p28 (not p35)) (or p19 p29 (not p44)) (or (not p58) (not p10) (not p55)) (or (not p1) (not p30) (not p0)) (or p0 p9 (not p4)) (or (not p38) (not p6) (not p51)) (or (not p14) (not p22) (not p24)) (or (not p53) (not p14) p17) (or (not p18) p54 p38) (or p47 (not p53) p21) (or p16 (not p41) p0) (or (not p36) (not p35) (not p45)) (or p34 p50 (not p16)) (or p6 p54 (not p39)) (or (not p21) p52 (not p14)) (or (not p26) (not p22) p44) (or (not p13) (not p16) p21) (or (not p16) (not p56) p25) (or p17 p45 p53) (or (not p38) (not p57) (not p40)) (or (not p43) (not p17) p40) (or (not p50) (not p10) p22) (or p27 (not p12) (not p37)) (or (not p20) p25 p57) (or p17 (not p24) (not p9)) (or p36 p51 p14) (or p34 p56 p52) (or p30 p45 p48) (or (not p59) p51 p8) (or (not p27) p10 (not p9)) (or (not p0) p47 p27) (or (not p3) p36 (not p15)) (or (not p39) (not p55) (not p45)) (or p40 p43 p26) (or p49 p16 p0) (or p24 (not p46) p35) (or (not p46) (not p4) (not p48)) (or p13 p45 p57) (or (not p41) p17 p37) (or (not p24) (not p15) p14) (or p33 p5 (not p32)) (or p38 (not p12) (not p59)) (or p1 (not p54) (not p35)) (or p59 p1 p40) (or (not p9) (not p46) p11) (or (not p40) (not p43) (not p53)) (or (not p56) p47 (not p6)) (or p3 p25 (not p34)) (or p0 (not p24) (not p8)) (or p14 (not p4) (not p0)) (or p34 (not p3) p25) (or (not p11) (not p52) p54) (or (not p31) (not p47) p8) (or p48 (not p40) (not p20)) (or p46 p2 p35) (or p46 (not p43) p2) (or p5 (not p28) p11) (or (not p27) (not p6) p30) (or p52 p13 p52) (or p0 (not p58) p3) (or (not p39) p38 (not p59)) (or (not p11) p19 (not p16)) (or p50 p29 p27) (or p4 p49 p30) (or (not p3) p23 (not p36)) (or (not p3) p24 (not p16)) (or (not p31) (not p53) p56) (or (not p6) (not p10) p27) (or p20 (not p36) p32) (or (not p46) (not p1) (not p14)) (or p47 (not p9) p38) (or (not p3) p8 p34) (or p42 (not p9) p58) (or (not p34) (not p10) (not p40)) (or p7 (not p36) (not p15)) (or p20 p36 (not p39)) (or p6 (not p47) (not p17)) (or p8 p56 (not p55)) (or p9 p44 (not p44)) (or p56 (not p23) p22) (or p5 p11 p42) (or p48 (not p29) p9) (or (not p20) p33 p14) (or (not p54) p48 p32) (or p54 (not p32) (not p15)) (or (not p51) p13 p29) (or p5 p31 p42) (or (not p42) p12 p44) (or (not p31) p51 (not p20)) (or p59 (not p46) (not p11)) (or (not p57) (not p40) p21) (or p39 p39 p54) (or p28 (not p27) (not p56)) (or (not p54) p10 p1) (or p44 p34 p30) (or p11 p21 p58) (or (not p48) (not p20) p37) (or p59 (not p29) (not p27)) (or (not p56) p44 (not p44)) (or (not p40) (not p26) p29) (or (not p37) (not p44) p56) (or p14 p22 p55) (or (not p7) (not p48) p38) (or (not p8) p51 p14) (or (not p0) (not p45) (not p24)) (or p23 p59 (not p24)) (or p19 p32 (not p39)) (or (not p55) (not p59) (not p40)) (or p18 p27 p19) (or p34 (not p49) (not p10)) (or p43 (not p29) (not p20)) (or (not p4) (not p22) (not p48)) (or (not p52) p34 p43) (or (not p10) (not p13) p31) (or p19 p36 p28) (or p18 (not p41) p13) (or p34 (not p0) p55) (or (not p40) (not p57) (not p18)) (or (not p37) (not p41) (not p34)) (or p49 (not p51) (not p28)) (or (not p39) (not p8) (not p30)) (or p38 (not p35) (not p9)) (or (not p15) (not p51) (not p34)) (or p22 p1 p47) (or (not p6) p38 p22) (or (not p22) (not p36) p32) (or p5 p46 p53) (or (not p55) (not p50) p53) (or p17 p11 p13) (or (not p25) (not p57) p17) (or p24 p33 (not p24)) (or p37 (not p57) p57) (or (not p7) (not p14) p24) (or (not p45) p28 p42) (or p22 p51 p45) (or p32 (not p7) p0) (or (not p40) p6 (not p25)) (or (not p40) (not p2) (not p59)) (or (not p49) (not p5) (not p41)) (or (not p49) p43 p40) (or (not p33) (not p56) (not p24)) (or (not p42) (not p58) (not p13)) (or p19 (not p26) (not p14)) (or (not p19) (not p17) (not p8)) (or p38 (not p44) p23) (or p3 p33 (not p28)) (or (not p47) (not p43) (not p44)) (or (not p3) p12 p42) (or (not p16) p15 (not p50)) (or p49 (not p4) p42) (or p53 (not p6) (not p6)) (or (not p51) p30 p52) (or p23 (not p27) p26) (or p56 (not p32) p32) (or (not p57) (not p6) p59) (or (not p13) (not p7) (not p38)) (or (not p41) p31 (not p9)) (or (not p53) p48 p26) (or p30 p17 p33) (or p21 (not p17) p9) (or (not p26) (not p48) p43) (or (not p44) (not p54) (not p59)) (or (not p3) (not p49) (not p39)) (or p37 p3 p42) (or (not p48) p5 (not p53)) (or (not p11) (not p43) (not p6)) (or p31 (not p21) (not p6)) (or (not p10) (not p23) (not p34)) (or p16 (not p47) p22) (or (not p25) p48 (not p29)) (or p13 p24 (not p17)) (or (not p32) (not p18) (not p54)) (or (not p10) (not p36) p20) (or (not p39) (not p27) p45) (or (not p16) (not p53) p6) (or p55 p19 p22) (or p46 p2 p53) (or (not p15) p52 p18) (or p40 p38 p13) (or p25 (not p25) (not p42)) (or (not p19) p25 p4) (or (not p19) (not p42) (not p9)) (or (not p50) p27 (not p40)) (or (not p3) p39 (not p10)) (or p5 p17 (not p7)) (or p40 (not p34) (not p0)) (or p7 p27 (not p58)) (or (not p8) p54 (not p5)) (or p48 (not p6) (not p57)) (or p4 (not p18) (not p14)) (or p3 (not p6) p52) (or p21 (not p50) p48) (or (not p28) p18 (not p29)) (or p20 p53 (not p9)) (or (not p37) p22 p30) (or p0 (not p40) (not p45)) (or p37 p5 (not p6)) (or (not p16) p11 (not p28)) (or p43 (not p57) p15) (or p8 p4 p34) (or (not p27) p5 p59) (or (not p43) (not p33) (not p2)) (or p36 (not p8) (not p52)) (or p42 p15 (not p12)) (or p3 p37 (not p59)) (or p47 (not p57) (not p41)) (or (not p59) p40 (not p16)) (or (not p18) (not p46) (not p2)) (or p52 (not p43) (not p7)) (or (not p54) (not p4) (not p19)) (or (not p10) p41 (not p24)) (or p0 (not p7) p11) (or (not p1) (not p42) p55) (or p57 p4 (not p0)) (or p8 (not p4) (not p23)) (or p58 p52 (not p53)) (or (not p32) (not p26) (not p11)) (or p58 (not p16) p9) (or p28 (not p28) p4) (or (not p52) p1 (not p22)) (or (not p41) (not p36) (not p19)) (or (not p55) (not p6) p9) (or (not p43) (not p58) (not p8)) (or (not p47) p53 (not p4)) (or p18 p29 (not p17)) (or p34 (not p21) (not p59)) (or p59 p2 p48) (or p58 (not p41) p29) (or p46 (not p42) p47))
)
(check-sat)
(get-model)
